(define-funs-rec
  ((u3
    ((x Int) (y Int) (z Int)) Int)
   (v3
    ((x Int) (y Int) (z Int)) Int))
  ((ite (<= x 0) y (+ (u3 (- x 1) y z) (v3 (- x 1) y z)))
   (ite (<= x 0) z (u3 (- x 1) y z))))
(define-fun
  w3
  ((x Int)) Int (u3 x 1 2))
(define-funs-rec
  ((u2
    ((x Int) (y Int) (z Int)) Int)
   (v2
    ((x Int) (y Int) (z Int)) Int))
  ((ite (<= x 0) y (+ (u2 (- x 1) y z) (v2 (- x 1) y z)))
   (ite (<= x 0) z (u2 (- x 1) y z))))
(define-fun
  w2
  ((x Int)) Int (u2 (w3 x) 1 2))
(define-funs-rec
  ((u1
    ((x Int) (y Int) (z Int)) Int)
   (v1
    ((x Int) (y Int) (z Int)) Int))
  ((ite (<= x 0) y (+ (u1 (- x 1) y z) (v1 (- x 1) y z)))
   (ite (<= x 0) z (u1 (- x 1) y z))))
(define-fun
  w1
  ((x Int)) Int (u1 x 1 2))
(define-fun-rec
  u0
  ((x Int) (y Int)) Int (ite (<= x 0) y (w1 (u0 (- x 1) y))))
(define-fun
  v0
  ((x Int)) Int (u0 2 x))
(define-fun
  h3
  ((x Int)) Int x)
(define-fun
  h1
  ((x Int)) Int x)
(define-fun
  h0
  ((x Int)) Int x)
(define-fun
  g3
  ((x Int)) Int x)
(define-fun
  g2
  ((x Int)) Int x)
(define-fun
  g1
  ((x Int)) Int x)
(assert-not
  (forall ((c Int)) (or (not (>= c 0)) (= (v0 c) (w2 c)))))
